40
1 0 3
2 0 4
2 1 4
3 0 4
3 1 4
4 3 2
5 0 10
6 1 1
6 2 10
6 4 3
6 5 9
7 0 9
7 2 10
7 3 3
7 4 2
7 5 8
8 0 9
8 1 1
8 2 7
8 4 3
8 5 9
9 2 1
9 3 7
9 4 3
9 5 4
9 7 10
9 8 3
10 0 1
10 3 1
10 4 6
10 6 3
10 7 7
10 8 3
10 9 4
11 1 6
11 2 3
11 4 6
11 5 2
11 7 6
11 9 10
11 10 3
12 0 4
12 1 1
12 3 4
12 9 4
12 11 1
13 0 7
13 7 3
13 8 5
13 9 7
13 10 3
13 11 6
14 1 8
14 4 6
14 6 8
14 7 1
14 8 2
14 10 6
14 11 1
14 13 3
15 0 5
15 1 10
15 2 10
15 5 7
15 7 9
15 9 5
15 10 10
15 11 9
15 14 3
16 0 5
16 1 1
16 3 1
16 4 10
16 5 5
16 6 2
16 7 2
16 9 7
16 11 3
16 15 5
17 0 9
17 1 5
17 2 6
17 3 1
17 5 8
17 6 9
17 7 10
17 8 7
17 9 3
17 11 4
17 15 8
17 16 7
18 0 5
18 1 9
18 2 8
18 5 1
18 6 1
18 7 3
18 8 7
18 11 1
18 12 4
18 14 3
18 15 6
19 0 3
19 3 8
19 5 7
19 6 9
19 8 6
19 9 1
19 11 1
19 14 8
19 16 1
19 17 4
19 18 4
20 1 2
20 4 8
20 6 10
20 7 1
20 8 2
20 9 9
20 10 7
20 11 9
20 13 3
20 14 7
20 15 1
20 18 1
21 2 8
21 7 4
21 9 5
21 10 4
21 11 8
21 14 10
21 17 9
21 19 7
22 3 3
22 4 4
22 5 9
22 6 4
22 7 2
22 8 3
22 9 8
22 10 2
22 13 5
22 14 9
22 16 2
22 17 8
22 20 6
22 21 1
23 0 6
23 2 7
23 3 8
23 4 1
23 5 1
23 8 5
23 12 6
23 13 6
23 14 3
23 19 8
23 20 7
23 21 1
23 22 9
24 0 9
24 1 1
24 2 8
24 3 2
24 7 5
24 10 10
24 12 5
24 15 4
24 16 5
24 18 9
24 19 4
24 22 4
25 4 2
25 8 6
25 9 3
25 11 3
25 12 9
25 13 9
25 19 6
25 21 8
25 23 10
25 24 9
26 0 5
26 1 6
26 2 8
26 3 7
26 5 6
26 7 3
26 8 10
26 9 6
26 10 5
26 11 10
26 13 10
26 14 10
26 15 2
26 17 10
26 21 6
26 22 3
27 0 7
27 2 7
27 4 8
27 6 1
27 8 5
27 10 2
27 12 2
27 15 9
27 17 6
27 18 3
27 19 9
27 24 6
27 25 8
28 0 10
28 1 5
28 6 3
28 9 3
28 10 7
28 12 2
28 14 3
28 16 3
28 19 4
28 20 8
28 22 4
28 23 8
28 24 5
28 25 9
28 26 10
28 27 1
29 0 10
29 1 2
29 2 3
29 3 9
29 4 9
29 5 3
29 7 10
29 8 9
29 11 1
29 12 5
29 13 1
29 14 2
29 16 1
29 19 4
29 21 6
29 23 9
29 27 9
29 28 6
30 0 10
30 1 8
30 2 3
30 4 8
30 6 4
30 7 2
30 8 4
30 9 6
30 10 6
30 11 10
30 12 5
30 13 7
30 14 5
30 15 3
30 16 8
30 17 2
30 18 5
30 21 1
30 22 1
30 26 4
30 28 9
31 0 3
31 2 6
31 3 4
31 4 5
31 6 3
31 8 2
31 10 7
31 11 5
31 12 1
31 13 10
31 17 8
31 21 1
31 22 10
31 24 2
31 25 9
31 27 1
31 28 10
31 29 4
32 0 7
32 1 10
32 2 10
32 4 10
32 5 7
32 8 10
32 9 1
32 10 3
32 11 4
32 12 4
32 13 5
32 14 9
32 16 8
32 17 4
32 19 3
32 22 5
32 24 8
32 25 3
32 29 8
33 0 10
33 2 3
33 4 10
33 5 4
33 9 3
33 13 3
33 14 6
33 15 9
33 16 7
33 18 7
33 20 5
33 22 1
33 24 3
33 25 5
33 26 5
33 29 1
33 31 8
33 32 2
34 2 8
34 3 3
34 5 6
34 6 1
34 7 9
34 8 7
34 9 6
34 12 8
34 15 7
34 17 6
34 23 10
34 26 1
34 27 2
34 28 10
34 29 4
34 31 9
34 33 7
35 0 1
35 1 2
35 2 2
35 3 6
35 4 4
35 6 3
35 7 2
35 8 10
35 11 7
35 12 6
35 13 5
35 16 4
35 17 3
35 19 10
35 20 9
35 23 10
35 24 8
35 26 8
35 27 7
35 28 5
35 29 10
35 30 8
35 31 4
35 33 4
35 34 2
36 1 2
36 3 2
36 4 3
36 7 1
36 9 6
36 10 4
36 11 8
36 12 6
36 13 2
36 14 9
36 15 2
36 16 3
36 17 4
36 18 8
36 19 8
36 21 2
36 22 6
36 24 10
36 26 4
36 28 1
36 31 4
36 32 4
36 34 1
36 35 7
37 1 3
37 2 1
37 3 4
37 4 3
37 5 2
37 6 9
37 7 10
37 8 1
37 10 5
37 11 8
37 12 5
37 13 10
37 14 7
37 15 4
37 18 2
37 20 10
37 22 7
37 24 6
37 26 2
37 27 5
37 29 9
37 30 6
37 31 5
37 33 9
37 34 1
37 35 1
37 36 1
38 0 10
38 2 8
38 3 1
38 4 5
38 6 5
38 7 2
38 8 5
38 11 3
38 12 8
38 15 8
38 16 5
38 20 3
38 21 7
38 22 5
38 25 3
38 27 3
38 28 10
38 29 5
38 36 7
38 37 8
39 2 4
39 4 9
39 5 1
39 7 10
39 8 9
39 9 1
39 11 8
39 13 9
39 14 7
39 15 3
39 16 5
39 17 7
39 21 1
39 23 9
39 24 4
39 28 4
39 30 5
39 31 5
39 32 9
39 33 8
39 38 5
